(set-logic QF_BV)
(declare-fun _substvar_3877_ () (_ BitVec 32))
(declare-fun _substvar_2962_ () (_ BitVec 32))
(declare-fun _substvar_4328_ () Bool)
(declare-fun _substvar_3154_ () (_ BitVec 8))
(declare-fun _substvar_4243_ () Bool)
(declare-fun _substvar_4242_ () Bool)
(declare-fun _substvar_4495_ () Bool)
(declare-fun _substvar_4241_ () Bool)
(declare-fun _substvar_3800_ () (_ BitVec 32))
(assert (let ((?v_367 (bvadd _substvar_3800_ (_ bv8 32)))) (let ( (?v_345 (bvadd _substvar_3877_ (_ bv7 32))) (?v_211 (bvadd _substvar_2962_ ?v_367))) (let ((?v_285 (bvsub ?v_211 (_ bv524288 32)))) (let ( (?v_386 (bvadd _substvar_2962_ (_ bv8 32)))) (and true (= _substvar_3877_ (bvor (bvshl (bvor (_ bv0 32) ((_ zero_extend 24) _substvar_3154_)) (_ bv8 32)) (_ bv0 32))) true true true true true true true true true true true true true true true true true true true true true true true true true true true true true true true true true true true true true true true true true true true true true true true true true true true true true true true true true true true true true true true true true true true true true true true true true true true true true true true true true true true true true true true true true _substvar_4328_ _substvar_4495_ true true true true true true true true true true true true true true true true true true true true true true true true true true true true true true true true true true true true true true true true true true true true true true true true true true true true true true true true true true true true true true true true true true true true true true true true true true true true true true true true true true true true true true true true true true true true true true true true true true true true true true true true true true true true true true true true true true true true true true true true true true true true true true true true true true true true true true true true true true true true true true true true true true true true true true true true true true true true true true true true true true true true true true true true true true true true true true true true true true true true true true true true true true true true true true true true true true true true true true true true true true true true true true true true true true true true true true true true true true true true true true true true true true true true true true true true true true true true true true true true true true true true true true true true true true true true true true true true true true true true true true true true true true true true true true true true true true true true true true true true true true true true true true true true true true true true true true true true true true true true true true true true true true true true true true true true true true true true true true true true true true true true true true true true true true true true true true true true true true true true true true true true true true true true true true true true true true true true true true true true true true true true true true true true true true true true true true true true true true true true true true true true true true true true true true true true true true true true true true true true true true true true true true true true true true true true true true true true true true true true true true true true true true true true true true true true true true true true true true true true true true true true true true true true true true true true true true true true true true true true true true true true true true true true true true true true true true true true true true true true true true true true true true true true true true true true true true true true true true true true true true true true true true true true true true true true true true true true true true true true true true true true true true true true true true true true true true true true true true true true true true true true true true true true true true true true true true true true true true true true true true true true true true true true true true true true true true true true true true true true true true true true true true true true true true true true true true true true true true true true true true true true true true true true true true true true true true true true true true true true true true true true true true true true true true true true true true true true true true true true true true true true true true true true true true true true true true true true true _substvar_4243_ true true _substvar_4242_ true _substvar_4241_ true true true true true true true true true true true true true true true true true true true true true true true true true true true true true true true true true true true (bvule (_ bv12 32) ?v_386) true true true true true true true true true true true true true true true true true true true true true true true true true true (bvult ?v_285 (_ bv49152 32)) true true true true true true true true true true true true true true true true true true true true true true true true true true true true true true true true true true true true true true true true true true true true true true true true true true true true true true true true true true true true true true true true true true true true true true true true true true true true true true true true (bvult (_ bv4 32) _substvar_2962_) true true true true true true true (not (= ?v_211 (_ bv65536 32))) true true (bvule ?v_211 ?v_345) (bvult (_ bv0 32) _substvar_3800_) (bvule _substvar_3800_ (_ bv65536 32)) true true (bvule _substvar_3800_ ?v_345) true true true true true true true true true true true true true true true true true true true true true true true true true true true true true true true true true true true true true true true true true true true true true true true true true true true true true true true true true true true true true true true true true true true true true true true true true true true true true true true true true true true true true true true true true true true true true true true true true true true true true true true true true true true true true true true true true true true true true true true true true true true true true true true true true true true true true true true true true true true true true true true true true true true true true true true true true true true true true true true true true))))))
(check-sat)
(exit)
